; benchmark generated from python API
(set-info :status unknown)
(declare-fun S_2 () Real)
(declare-fun L_2 () Real)
(declare-fun A_2 () Real)
(declare-fun S_4 () Real)
(declare-fun A_4 () Real)
(declare-fun L_3 () Real)
(declare-fun L_0 () Real)
(declare-fun S_0 () Real)
(declare-fun A_0 () Real)
(declare-fun S_1 () Real)
(declare-fun A_3 () Real)
(declare-fun L_1 () Real)
(declare-fun A_1 () Real)
(declare-fun S_3 () Real)
(assert
 (let (($x34 (>= L_0 0.0)))
 (let (($x50260 (<= (+ L_3 (* (- 1.0) A_3) (* (/ 2.0 3.0) S_4) (* (/ 1.0 3.0) S_1)) (- 5.0))))
 (let (($x47714 (<= (+ (* 2.0 L_3) (* (- 2.0) A_3) A_2 (* (- 1.0) L_2) S_4) (- 10.0))))
 (let (($x71 (= L_3 L_2)))
 (let (($x49825 (<= (+ (* (- 1.0) A_2) (* (/ 1.0 2.0) S_4) (* (/ 1.0 2.0) S_0) L_2) (- 5.0))))
 (let ((?x952 (* 3.0 L_2)))
 (let ((?x857 (* (- 2.0) L_1)))
 (let ((?x855 (* 2.0 A_1)))
 (let ((?x949 (* (- 3.0) A_2)))
 (let (($x61 (= L_2 L_1)))
 (let (($x51305 (<= (+ L_3 (* (- 1.0) A_3) (* (/ 3.0 2.0) S_2) (* (- (/ 1.0 2.0)) S_1)) (- 5.0))))
 (let ((?x491 (* (- 1.0) L_2)))
 (let ((?x404 (* (- 1.0) A_3)))
 (let ((?x3738 (+ L_3 ?x404 A_2 ?x491)))
 (let (($x46890 (<= ?x3738 (- 10.0))))
 (let (($x98291 (or $x71 $x46890 (<= (+ L_3 ?x404 A_1 (* (- 1.0) L_1)) (- 15.0)) (<= (+ L_3 ?x404 S_0) (- 20.0)))))
 (let (($x52444 (<= (+ L_3 ?x404 A_2 ?x491 (* (/ 1.0 2.0) S_1) (* (- (/ 1.0 2.0)) S_0)) (- 5.0))))
 (let (($x53369 (or $x71 (<= (+ L_3 ?x404 (* 2.0 S_1) (* (- 1.0) S_0)) (- 5.0)) $x52444)))
 (let (($x53317 (or $x71 (<= (+ L_3 ?x404 (* (/ 4.0 3.0) S_2) (* (- (/ 1.0 3.0)) S_0)) (- 5.0)))))
 (let (($x49873 (<= (+ L_3 ?x404 (* (- (/ 1.0 2.0)) A_0) (* (/ 3.0 2.0) S_2) (* (/ 1.0 2.0) L_0)) (- 5.0))))
 (let (($x53315 (or $x71 (<= (+ L_3 ?x404 (* (- 1.0) A_1) L_1 (* 2.0 S_2)) (- 5.0)))))
 (let ((?x2280 (* 2.0 S_4)))
 (let ((?x408 (* (- 1.0) A_2)))
 (let ((?x1268 (* (- 2.0) A_3)))
 (let ((?x1262 (* 2.0 L_3)))
 (let (($x53267 (or $x61 (<= (+ L_3 ?x404 ?x408 A_1 S_4 (* (- 1.0) L_1) L_2) (- 5.0)) (<= (+ ?x1262 ?x1268 ?x408 ?x2280 S_0 L_2) (- 5.0)))))
 (let (($x47887 (<= (+ L_3 ?x404 (* (/ 1.0 3.0) A_1) (* (- (/ 1.0 3.0)) L_1) (* (/ 2.0 3.0) S_4)) (- 5.0))))
 (let (($x53166 (or $x71 (<= (+ L_3 ?x404 (* (/ 3.0 4.0) S_4) (* (/ 1.0 4.0) S_0)) (- 5.0)) $x47714 $x47887)))
 (let (($x47042 (<= (+ L_3 ?x404 (* (- 2.0) A_0) (* 3.0 S_1) (* 2.0 L_0)) (- 5.0))))
 (let (($x53826 (or $x71 $x47042 (<= (+ L_3 ?x404 A_2 (* (- 1.0) A_0) ?x491 S_1 L_0) (- 5.0)))))
 (let ((?x3389 (* (/ 1.0 2.0) S_4)))
 (let ((?x412 (* (- 1.0) A_1)))
 (let (($x51540 (<= (+ (* (- (/ 1.0 2.0)) A_2) ?x412 (* (/ 1.0 2.0) L_2) ?x3389 S_0 L_1) (- 5.0))))
 (let (($x51 (= L_1 L_0)))
 (let (($x12975 (<= (+ L_3 ?x404 A_1 S_1 (* (- 1.0) S_0) (* (- 1.0) L_1)) 0.0)))
 (let (($x1273 (<= (+ (* (- 1.0) S_3) A_2 ?x491) 0.0)))
 (let ((?x12770 (* (- (/ 5.0 2.0)) L_1)))
 (let ((?x963 (* (- 1.0) S_0)))
 (let ((?x9774 (* (/ 5.0 2.0) A_1)))
 (let ((?x11656 (* (- (/ 5.0 2.0)) A_3)))
 (let ((?x11843 (* (/ 5.0 2.0) L_3)))
 (let (($x12015 (<= (+ ?x11843 ?x11656 ?x9774 S_4 ?x963 ?x12770) 0.0)))
 (let (($x1277 (<= (+ L_3 ?x404 A_2 A_1 ?x491 (* (- 1.0) S_1) (* (- 1.0) L_1)) 0.0)))
 (let ((?x964 (* (- 4.0) L_1)))
 (let ((?x1012 (* (- 2.0) S_1)))
 (let ((?x962 (* 4.0 A_1)))
 (let ((?x3167 (* (- 4.0) A_3)))
 (let ((?x11807 (* 4.0 L_3)))
 (let ((?x504 (* (- 1.0) L_1)))
 (let ((?x985 (* (- 1.0) A_0)))
 (let (($x1300 (<= (+ L_3 ?x404 A_2 A_1 ?x985 ?x491 ?x504 L_0) 0.0)))
 (let ((?x23431 (* (- 5.0) L_2)))
 (let ((?x22562 (* 5.0 A_2)))
 (let ((?x22838 (* (- 5.0) A_3)))
 (let ((?x22971 (* 5.0 L_3)))
 (let ((?x958 (* (- 3.0) L_2)))
 (let ((?x441 (* (- 1.0) S_2)))
 (let ((?x955 (* 3.0 A_2)))
 (let ((?x3154 (* (- 3.0) A_3)))
 (let ((?x3532 (* 3.0 L_3)))
 (let (($x51044 (not (<= 0.0 (+ (* (- 1.0) L_3) A_3 ?x408 ?x412 S_0 L_1 L_2)))))
 (let (($x99044 (or $x61 $x51044 (<= 0.0 (+ (* (/ 1.0 2.0) S_3) ?x412 (* (/ 1.0 2.0) S_0) L_1)))))
 (let ((?x865 (* 2.0 L_2)))
 (let ((?x858 (* (- 2.0) A_2)))
 (let ((?x1286 (* 2.0 A_3)))
 (let ((?x392 (* (- 1.0) S_3)))
 (let ((?x3826 (* (- 2.0) L_3)))
 (let (($x57064 (or $x61 (<= (+ L_3 ?x404 A_2 A_1 ?x491 ?x963 (* (- 1.0) L_0)) 0.0) (<= (+ ?x3826 ?x392 ?x1286 ?x858 S_0 ?x865) 0.0))))
 (let (($x52178 (<= (+ ?x1262 ?x1268 (* 2.0 A_2) A_1 (* (- 2.0) L_2) ?x963 ?x504) (- 5.0))))
 (let (($x37512 (<= (+ ?x1262 ?x1268 (* 2.0 A_2) ?x855 (* (- 2.0) L_2) ?x441 ?x963 ?x857) 0.0)))
 (let (($x20440 (<= (+ ?x1262 ?x1268 (* 2.0 A_2) S_1 ?x963 (* (- 2.0) L_2)) 0.0)))
 (let (($x8422 (<= (+ L_3 ?x392 ?x404 A_1 S_4 ?x504) 0.0)))
 (let (($x36230 (or $x1273 $x8422 (<= (+ L_3 (* (- (/ 1.0 2.0)) S_3) ?x404 S_4 (* (/ 1.0 2.0) S_0)) 0.0))))
 (let (($x52658 (or $x61 (<= (+ S_3 ?x858 A_1 ?x504 ?x865) (- 10.0)) (<= (+ (* (/ 2.0 3.0) S_3) ?x408 (* (/ 1.0 3.0) S_0) L_2) (- 5.0)))))
 (let (($x43742 (<= 0.0 (+ L_3 ?x404 S_4))))
 (let (($x31910 (<= (+ A_2 (* (- 1.0) S_4) ?x491 (* (/ 1.0 2.0) S_1) (* (- (/ 1.0 2.0)) S_0)) 0.0)))
 (let (($x52651 (or (<= (+ (* (- 1.0) S_4) (* 2.0 S_1) ?x963) 0.0) $x31910 $x43742)))
 (let ((?x419 (* (- 1.0) S_4)))
 (let ((?x944 (* (- 2.0) L_2)))
 (let ((?x854 (* 2.0 A_2)))
 (let (($x37738 (<= (+ L_3 ?x404 ?x854 A_1 ?x944 ?x419 ?x963 ?x504) 0.0)))
 (let ((?x3395 (* (- (/ 1.0 2.0)) L_1)))
 (let ((?x3413 (* (/ 1.0 2.0) A_1)))
 (let ((?x3657 (* (- (/ 1.0 2.0)) A_3)))
 (let ((?x4212 (* (/ 1.0 2.0) L_3)))
 (let ((?x2815 (* (- (/ 3.0 2.0)) L_1)))
 (let ((?x3072 (* (/ 3.0 2.0) A_1)))
 (let ((?x3144 (* (- (/ 3.0 2.0)) A_3)))
 (let ((?x7792 (* (/ 3.0 2.0) L_3)))
 (let (($x13855 (<= (+ ?x7792 ?x3144 ?x3072 S_2 ?x963 ?x2815) 0.0)))
 (let (($x10910 (<= (+ ?x11807 ?x3167 ?x962 (* (- 2.0) A_0) ?x2280 ?x964 (* 2.0 L_0)) 0.0)))
 (let ((?x12112 (* (- 4.0) L_2)))
 (let ((?x452 (* (- 1.0) S_1)))
 (let ((?x11960 (* 4.0 A_2)))
 (let (($x95880 (or $x61 (<= (+ (* (- 1.0) L_3) A_3 ?x858 A_1 ?x504 ?x865) (- 5.0)) (<= (+ ?x3826 ?x1286 ?x949 S_0 ?x952) (- 5.0)))))
 (let ((?x6780 (* (- (/ 1.0 2.0)) L_2)))
 (let ((?x6717 (* (/ 1.0 2.0) A_2)))
 (let (($x57297 (or $x71 (<= (+ ?x7792 ?x3144 ?x3072 S_4 ?x441 ?x2815) 0.0) (<= (+ L_3 ?x404 ?x6717 A_1 ?x6780 ?x3389 ?x441 ?x504) 0.0))))
 (let (($x15055 (<= (+ L_3 ?x404 A_2 (* (/ 1.0 3.0) S_2) (* (- (/ 1.0 3.0)) S_0) ?x504) 0.0)))
 (let (($x2067 (not $x61)))
 (let ((?x951 (* (- 3.0) L_1)))
 (let ((?x950 (* 3.0 A_1)))
 (let ((?x4290 (* 2.0 S_3)))
 (let ((?x2208 (* 2.0 L_0)))
 (let ((?x1528 (* 2.0 S_1)))
 (let ((?x2210 (* (- 2.0) A_0)))
 (let (($x3093 (<= (+ (* (- (/ 1.0 2.0)) A_1) (* (/ 1.0 2.0) L_1) (* (- (/ 1.0 2.0)) S_4) S_2) 0.0)))
 (let ((?x3359 (* (/ 1.0 2.0) L_1)))
 (let ((?x3142 (* (- (/ 1.0 2.0)) A_1)))
 (let ((?x3654 (* (/ 1.0 2.0) A_3)))
 (let ((?x3305 (* (- (/ 1.0 2.0)) L_3)))
 (let (($x12835 (<= (+ (* (- 1.0) L_3) (* (- 2.0) S_3) A_3 ?x412 ?x1528 L_1) 0.0)))
 (let (($x51955 (or $x61 (<= (+ ?x408 (* (/ 1.0 3.0) S_4) (* (/ 2.0 3.0) S_1) L_2) (- 5.0)))))
 (let (($x97124 (or $x51 (<= (+ ?x3305 ?x3654 (* (- (/ 3.0 2.0)) A_1) S_0 (* (/ 3.0 2.0) L_1)) (- 5.0)))))
 (let (($x1761 (<= (+ A_1 ?x441 ?x504) 0.0)))
 (let (($x51910 (or $x61 (<= (+ (* (/ 1.0 2.0) S_3) ?x408 (* (/ 1.0 2.0) S_1) L_2) (- 5.0)))))
 (let ((?x10821 (* 5.0 L_2)))
 (let ((?x10508 (* (- 5.0) L_1)))
 (let ((?x11967 (* 5.0 A_1)))
 (let ((?x12080 (* (- 5.0) A_2)))
 (let (($x12624 (<= (+ (* (- 4.0) A_2) ?x962 S_4 ?x452 ?x964 (* 4.0 L_2)) 0.0)))
 (let (($x51758 (or $x61 (<= (+ ?x408 A_1 ?x504 L_2) (- 10.0)) (<= (+ ?x408 S_0 L_2) (- 15.0)))))
 (let (($x51698 (or $x61 (<= (+ ?x408 (* (/ 3.0 2.0) S_1) (* (- (/ 1.0 2.0)) S_0) L_2) (- 5.0)))))
 (let (($x10956 (<= (+ ?x854 (* (- 2.0) A_1) ?x419 S_1 (* 2.0 L_1) ?x944) 0.0)))
 (let (($x967 (<= (+ S_3 (* (- 4.0) A_2) ?x962 ?x963 ?x964 (* 4.0 L_2)) 0.0)))
 (let (($x96506 (or $x61 (<= (+ (* (- 1.0) L_3) ?x392 A_3 ?x408 S_1 L_2) 0.0))))
 (let (($x32802 (or $x1761 (<= (+ ?x408 L_2 S_4 (* (- 2.0) S_2) (* 2.0 S_0)) 0.0))))
 (let (($x8381 (<= (+ ?x955 (* (- 3.0) A_1) ?x419 S_0 (* 3.0 L_1) ?x958) 0.0)))
 (let ((?x3505 (* (/ 3.0 2.0) L_1)))
 (let ((?x3504 (* (- (/ 3.0 2.0)) A_1)))
 (let (($x28783 (<= (+ (* (- (/ 3.0 2.0)) L_3) (* (/ 3.0 2.0) A_3) ?x3504 ?x419 S_0 ?x3505) 0.0)))
 (let (($x96989 (or $x51 $x2067 (<= (+ A_2 ?x412 (* (- (/ 1.0 3.0)) S_4) (* (/ 1.0 3.0) S_0)) 0.0) $x43742)))
 (let (($x12665 (<= (+ (* (- 4.0) A_2) ?x962 ?x985 S_4 ?x964 (* 4.0 L_2) L_0) 0.0)))
 (let (($x9979 (<= (+ ?x392 ?x854 (* (- 2.0) A_1) S_0 (* 2.0 L_1) ?x944) 0.0)))
 (let (($x99264 (or $x61 (<= (+ (* (- 1.0) L_3) A_3 ?x408 ?x419 S_2 L_2) 0.0))))
 (let ((?x834 (* 2.0 L_1)))
 (let ((?x2269 (* 2.0 S_0)))
 (let ((?x852 (* (- 2.0) A_1)))
 (let ((?x4299 (* (- 2.0) S_3)))
 (let (($x22530 (<= (+ (* (- 3.0) L_3) (* 3.0 A_3) ?x949 ?x419 S_0 ?x952) 0.0)))
 (let (($x3818 (<= (+ ?x3826 ?x1286 ?x858 A_1 ?x504 ?x419 ?x865) 0.0)))
 (let (($x295 (not (<= 0.0 (+ (* (- 1.0) L_3) L_2)))))
 (let (($x1493 (<= (+ A_2 ?x419 ?x491) (- 5.0))))
 (let (($x50962 (or $x1493 $x43742 (<= (+ ?x3413 ?x3395 (* (- (/ 1.0 2.0)) S_4)) (- 5.0)) (<= (+ (* (- (/ 1.0 3.0)) S_4) (* (/ 1.0 3.0) S_0)) (- 5.0)))))
 (let (($x50785 (or (<= (+ ?x2210 ?x419 (* 3.0 S_1) ?x2208) 0.0) (<= (+ A_2 ?x985 ?x491 ?x419 S_1 L_0) 0.0) $x43742)))
 (let (($x96525 (or $x71 (<= (+ ?x1262 ?x1268 ?x855 ?x2210 (* 2.0 S_2) ?x857 ?x2208) 0.0))))
 (let (($x19727 (<= (+ (* (- (/ 1.0 2.0)) A_0) ?x419 (* (/ 3.0 2.0) S_2) (* (/ 1.0 2.0) L_0)) 0.0)))
 (let (($x96586 (or $x51 $x2067 (<= (+ A_2 ?x412 (* (- (/ 1.0 2.0)) S_4) (* (/ 1.0 2.0) S_1)) 0.0) $x43742)))
 (let (($x49599 (or $x1273 (<= (+ ?x392 A_1 ?x504) (- 5.0)) (<= (+ (* (- (/ 1.0 2.0)) S_3) (* (/ 1.0 2.0) S_0)) (- 5.0)))))
 (let (($x49583 (<= (+ (* (- 4.0) A_1) S_4 (* 3.0 S_0) (* 4.0 L_1)) (- 20.0))))
 (let (($x49577 (or $x51 (<= (+ (* (/ 1.0 3.0) S_3) ?x412 (* (/ 2.0 3.0) S_0) L_1) (- 5.0)))))
 (let (($x49565 (or $x51 (<= (+ ?x412 (* (/ 1.0 2.0) S_2) (* (/ 1.0 2.0) S_0) L_1) (- 5.0)))))
 (let (($x96094 (or $x71 $x2067 (<= (+ L_3 ?x404 A_2 ?x985 S_1 ?x504 L_0) 0.0))))
 (let (($x1566 (<= (+ L_3 ?x404 A_2 (* (/ 1.0 2.0) S_1) (* (- (/ 1.0 2.0)) S_0) ?x504) 0.0)))
 (let (($x96245 (or $x51 $x71 (<= 0.0 (+ (* (- 1.0) L_3) A_3 ?x858 A_1 ?x504 ?x865)))))
 (let (($x9673 (or $x1273 (<= (+ ?x392 ?x3389 (* (/ 1.0 2.0) S_0)) 0.0) (<= (+ (* (- 3.0) S_3) ?x855 ?x857 S_4) 0.0))))
 (let (($x98981 (or $x61 (<= (+ (* (- 1.0) L_3) A_3 ?x858 A_1 ?x504 ?x865) 0.0))))
 (let (($x1279 (<= (+ (* (- 1.0) L_3) A_3 ?x408 ?x412 L_2 S_0 L_1) 0.0)))
 (let (($x97008 (or $x61 $x1279 (<= (+ (* (- 1.0) L_3) ?x392 A_3 ?x408 A_1 ?x504 L_2) 0.0))))
 (let (($x95571 (or $x51 (<= (+ (* (- 1.0) L_3) A_3 ?x412 ?x419 S_1 L_1) 0.0))))
 (let (($x108 (>= S_1 S_0)))
 (let (($x111 (>= S_2 S_1)))
 (let (($x114 (>= S_3 S_2)))
 (let (($x117 (>= S_4 S_3)))
 (let (($x119 (>= A_1 A_0)))
 (let (($x120 (>= A_2 A_1)))
 (let (($x121 (>= A_3 A_2)))
 (let (($x122 (>= A_4 A_3)))
 (and (not (<= (+ A_3 (* (- 1.0) L_3)) S_3)) $x122 $x121 $x120 $x119 $x117 $x114 $x111 $x108 (or $x51 (not (<= 0.0 (+ ?x504 L_0)))) (or $x61 (<= (+ ?x408 A_1 ?x504 L_2) (- 5.0))) (or $x295 $x71) $x95571 (or $x71 (<= (+ L_3 S_3 ?x404) (- 5.0))) (or $x1273 (<= (+ ?x392 (* (/ 3.0 2.0) S_1) (* (- (/ 1.0 2.0)) S_0)) 0.0)) (or $x51 (<= (+ ?x412 S_1 L_1) (- 5.0))) (or $x61 (not (<= 0.0 (+ L_1 ?x491)))) (or $x51 $x1279) (or $x71 (<= ?x3738 (- 5.0))) (<= (+ ?x412 S_1 L_1) 0.0) $x97008 (or $x61 (<= (+ ?x408 S_2 L_2) (- 5.0))) (or $x71 (<= (+ ?x1262 S_3 ?x1268 ?x854 ?x412 L_1 ?x944) 0.0)) (or $x61 (<= (+ S_3 ?x858 A_1 ?x504 ?x865) (- 5.0))) $x98981 (or $x61 (<= (+ S_3 ?x858 ?x855 ?x441 ?x857 ?x865) 0.0)) (or $x1761 (<= (+ (* (/ 1.0 4.0) S_4) ?x441 (* (/ 3.0 4.0) S_0)) 0.0)) (or $x1761 (<= (+ (* (/ 1.0 3.0) S_3) ?x441 (* (/ 2.0 3.0) S_0)) 0.0)) (or $x61 (not (<= 0.0 (+ ?x412 S_1 L_1))) $x3818) (or $x71 (<= (+ ?x3532 ?x3154 ?x955 ?x412 L_1 S_4 ?x958) 0.0)) $x9673 (or $x51 (<= (+ ?x392 A_2 ?x412 S_1 L_1 ?x491) 0.0)) (or $x71 $x47714 (<= (+ ?x7792 ?x3144 ?x3413 S_4 ?x3395) (- 5.0))) (or $x61 (<= (+ ?x949 ?x950 S_4 ?x441 ?x951 ?x952) 0.0)) $x96245 (or $x61 (<= (+ ?x858 ?x855 ?x985 S_2 ?x857 ?x865 L_0) 0.0)) (or $x61 (<= (+ ?x858 ?x855 S_2 ?x452 ?x857 ?x865) 0.0)) (or $x43742 (<= (+ ?x419 S_2) (- 5.0))) (or $x71 $x1273 $x8422) (or $x61 (<= (+ ?x392 ?x858 ?x855 S_4 ?x857 ?x865) 0.0)) (or $x43742 (<= (+ (* (- 2.0) S_4) (* 3.0 S_2) ?x452) 0.0)) (or $x71 (<= (+ L_3 S_3 ?x404 A_1 ?x441 ?x504) 0.0)) (or $x71 $x1566 $x2067) $x96094 (or $x71 (<= (+ L_3 ?x404 A_2 ?x412 L_1 S_2 ?x491) 0.0)) (or $x61 (<= (+ ?x949 ?x950 S_2 ?x963 ?x951 ?x952) 0.0)) (or $x1761 (<= (+ ?x441 S_0) (- 5.0))) (or $x1761 (<= (+ L_3 ?x404 S_4 ?x441 S_0) 0.0)) (or $x1493 $x43742 (<= (+ (* (- (/ 1.0 2.0)) S_4) (* (/ 1.0 2.0) S_1)) (- 5.0))) (or $x1273 (<= (+ ?x392 S_1) (- 5.0))) (or $x1273 (<= (+ L_3 ?x392 ?x404 S_4 S_1) 0.0)) (or $x61 (<= (+ ?x3826 ?x1286 ?x858 ?x419 S_1 ?x865) 0.0)) (or $x61 (<= (+ S_3 ?x949 ?x950 ?x985 ?x951 ?x952 L_0) 0.0)) (or $x51 (<= (+ ?x412 S_0 L_1) (- 10.0))) $x49565 $x49577 (or $x51 $x49583) $x49599 $x96586 (or $x51 (<= (+ A_2 ?x412 ?x441 S_0 L_1 ?x491) 0.0)) (or $x61 (<= (+ ?x408 S_1 L_2) (- 10.0))) (or $x71 (<= (+ ?x1262 ?x392 ?x1268 ?x854 S_4 ?x944) 0.0)) (or $x1761 (<= (+ S_3 ?x408 L_2 ?x441 S_0) 0.0)) (or $x61 (<= (+ ?x949 ?x855 S_4 ?x857 ?x952) (- 5.0))) (or $x43742 $x19727) $x96525 (or $x71 $x1300 (<= (+ ?x3532 ?x4290 ?x3154 ?x950 ?x2210 ?x951 ?x2208) 0.0)) (or $x51 $x43742 (<= (+ ?x412 ?x419 (* 2.0 S_2) L_1) (- 5.0))) (or $x61 (<= (+ (* (- 1.0) L_3) A_3 ?x858 S_1 ?x865) (- 5.0))) $x50785 (or $x51 (<= (+ A_2 ?x852 S_0 ?x834 ?x491) (- 5.0))) (or $x71 (<= (+ ?x1262 S_3 ?x1268 ?x854 ?x441 ?x944) 0.0)) $x50962 (or $x43742 (<= (+ ?x419 (* (/ 4.0 3.0) S_2) (* (- (/ 1.0 3.0)) S_0)) 0.0)) (or $x61 $x295 (<= (+ A_3 ?x408 ?x419 S_2) 0.0)) (or $x61 (<= (+ ?x408 A_1 ?x985 S_1 ?x504 L_2 L_0) 0.0)) (or $x1273 (<= (+ ?x392 ?x985 ?x1528 L_0) 0.0)) (or $x51 (<= (+ ?x3305 ?x3654 ?x3142 ?x441 S_0 ?x3359) 0.0)) (or $x61 $x3818 $x22530) (or $x51 (<= (+ ?x3826 ?x4299 ?x1286 ?x852 ?x2269 ?x834) 0.0)) $x99264 (or $x51 $x9979) (or $x61 $x12665) $x96989 (or $x51 $x28783) (or $x51 $x71 (<= (+ ?x4212 ?x3657 ?x3142 S_2 ?x3359) (- 5.0))) (or $x71 (not (<= 0.0 (+ ?x412 S_1 L_1))) $x1300) (or $x61 (<= (+ ?x408 ?x985 ?x1528 L_2 L_0) (- 5.0))) (or $x51 $x8381 $x43742) $x32802 (or $x61 (<= (+ L_3 ?x404 ?x408 A_1 S_4 ?x504 L_2) 0.0)) (or $x1273 (<= (+ ?x392 (* (/ 1.0 3.0) S_4) (* (/ 2.0 3.0) S_1)) 0.0)) $x96506 (or $x61 (<= (+ S_3 ?x949 ?x950 ?x452 ?x951 ?x952) 0.0)) (or $x61 $x967) (or $x51 (<= (+ A_2 ?x412 ?x419 S_2 L_1 ?x491) 0.0) $x43742) (or $x51 $x10956 $x43742) (or $x61 (<= (+ ?x858 ?x855 S_1 ?x963 ?x857 ?x865) 0.0)) $x51698 $x51758 (or $x61 $x12624) (or $x61 (<= (+ ?x12080 ?x11967 S_4 ?x963 ?x10508 ?x10821) 0.0)) $x51910 (or $x61 $x1761 (<= 0.0 (+ L_3 ?x404 A_2 ?x491 S_2 ?x963))) $x97124 (or $x71 (<= (+ L_3 ?x404 S_2) (- 10.0))) $x51955 (or $x51 $x1273 $x12835) (or $x51 $x43742 (<= (+ ?x3305 ?x3654 ?x3142 ?x419 S_2 ?x3359) 0.0)) (or $x43742 $x3093) (or $x71 (<= (+ ?x1262 ?x1268 ?x854 ?x985 S_2 ?x944 L_0) 0.0)) (or $x71 (<= (+ ?x11807 ?x3167 ?x11960 ?x985 S_4 ?x12112 L_0) 0.0)) (or $x71 $x1300 (<= (+ L_3 ?x404 A_1 ?x2210 ?x1528 ?x504 ?x2208) 0.0)) (or $x71 $x1300 (<= (+ ?x1262 S_3 ?x1268 ?x855 ?x963 ?x857) 0.0)) (or $x71 $x1277 (<= (+ ?x3532 ?x4290 ?x3154 ?x950 ?x1012 ?x951) 0.0)) (or $x71 (<= (+ ?x1262 ?x1268 ?x855 (* 2.0 S_2) ?x1012 ?x857) 0.0)) (or $x71 (<= (+ ?x1262 ?x1268 ?x854 S_2 ?x452 ?x944) 0.0)) (or $x71 (<= (+ ?x11807 S_3 ?x3167 ?x11960 ?x963 ?x12112) 0.0)) (or $x71 $x2067 $x15055) (or $x71 (<= (+ ?x3532 ?x3154 ?x955 S_2 ?x963 ?x958) 0.0)) (or $x71 (<= (+ ?x3532 S_3 ?x3154 ?x955 ?x452 ?x958) 0.0)) (or $x51 (<= (+ S_3 ?x408 ?x412 L_2 S_0 L_1) (- 5.0))) $x57297 $x95880 (or $x71 (<= (+ ?x1262 ?x1268 A_2 S_4 ?x491) (- 5.0))) (or $x71 (<= (+ ?x11807 ?x3167 ?x11960 S_4 ?x452 ?x12112) 0.0)) (or $x71 $x1300 $x10910) (or $x71 (<= (+ ?x1262 ?x1268 S_4 S_2) (- 10.0))) (or $x71 $x1300 $x13855) (or $x71 $x13855 $x52178) (or $x71 (<= (+ ?x1262 S_3 ?x1268 ?x855 ?x963 ?x857) 0.0) $x52178) (or $x71 $x1273 $x13855) (or $x71 $x13855 $x37738) (or $x71 $x1277 $x13855) (or $x71 (<= (+ ?x4212 ?x3657 ?x3413 ?x3395) (- 5.0))) (or $x71 (<= (+ ?x1262 S_3 ?x1268 ?x855 ?x963 ?x857) 0.0) $x37512) (or $x71 $x1277 (<= (+ ?x1262 S_3 ?x1268 ?x855 ?x963 ?x857) 0.0)) (or $x71 (<= (+ ?x1262 S_3 ?x1268 ?x855 ?x963 ?x857) 0.0) $x37738) (or $x71 $x12975 $x37512) (or $x71 $x12975 $x37738) $x52651 $x52658 $x36230 (or $x71 $x20440) (or $x51 (<= (+ L_3 ?x404 ?x412 S_4 S_0 L_1) (- 5.0))) (or $x71 $x12015 $x37512) (or $x71 $x1300 $x12015) (or $x71 $x12015 $x52178) (or $x71 $x12975 $x52178) (or $x71 (<= (+ L_3 ?x404 A_2 ?x985 S_1 ?x491 L_0) 0.0)) $x57064 $x99044 (or $x71 (<= (+ ?x3532 S_3 ?x3154 ?x955 ?x985 ?x958 L_0) 0.0)) (or $x71 (<= (+ ?x3532 ?x3154 ?x955 S_4 ?x441 ?x958) 0.0)) (or $x71 (<= (+ ?x22971 ?x22838 ?x22562 S_4 ?x963 ?x23431) 0.0)) (or $x71 $x1300 $x12975) (or $x71 $x1273 $x12015) (or $x71 $x1277 (<= (+ ?x11807 ?x3167 ?x962 ?x2280 ?x1012 ?x964) 0.0)) (or $x71 $x1277 $x12015) (or $x71 $x1273 $x12975) (or $x51 $x51540) (or $x71 $x46890 (<= (+ L_3 ?x404 S_1) (- 15.0))) $x53826 $x53166 (or $x61 (<= (+ L_3 ?x404 ?x408 S_4 S_1 L_2) (- 5.0))) $x53267 $x53315 (or $x71 $x49873) $x53317 $x53369 $x98291 (or $x71 $x51305) (or $x61 (<= (+ ?x949 ?x855 ?x857 S_4 ?x952) (- 15.0)) $x49825) (or $x71 $x47714 $x50260) $x34 (<= (+ ?x985 S_0 L_0) 0.0) (<= (+ L_3 (* (- 1.0) A_4) S_4) 0.0) (<= (+ ?x408 L_2 S_2) 0.0)))))))))))))))))))))))))))))))))))))))))))))))))))))))))))))))))))))))))))))))))))))))))))))))))))))))))))))))))))))))))))))))))))))))))))))))))))))))))))))))))))))))))))
(check-sat)
